SDVRP instances/custom_instances/p02_26_splitx10_0.vrp
NAME:p02_26_splitx10_
BEST_KNOWN: 0
COMMENT: 0
DIMENSION: 348
CAPACITY: 1400
EDGE_WEIGHT_FORMAT: FUNCTION
EDGE_WEIGHT_TYPE: EXACT_2D
NODE_COORD_SECTION
1 0.00000 0.00000
2 46 24
3 46 24
4 46 24
5 3 -27
6 3 -27
7 3 -27
8 3 -27
9 3 -27
10 22 44
11 22 44
12 22 44
13 22 44
14 11 -15
15 11 -15
16 11 -15
17 -39 -2
18 -39 -2
19 -39 -2
20 -39 -2
21 -39 -2
22 26 -29
23 26 -29
24 26 -29
25 26 -29
26 26 -29
27 26 -29
28 26 -29
29 -15 6
30 -15 6
31 -15 6
32 -15 6
33 -15 6
34 28 0
35 28 0
36 28 0
37 28 0
38 28 0
39 28 0
40 28 0
41 -9 42
42 -9 42
43 -9 42
44 -9 42
45 -9 42
46 -9 42
47 -9 42
48 -21 23
49 -21 23
50 -21 23
51 -43 26
52 -43 26
53 -43 26
54 -43 26
55 29 -36
56 29 -36
57 29 -36
58 29 -36
59 29 -36
60 -40 -16
61 -40 -16
62 -40 -16
63 -40 -16
64 -40 -16
65 -40 -16
66 -40 -16
67 -40 -16
68 1 -43
69 1 -43
70 1 -43
71 1 -43
72 19 -38
73 19 -38
74 19 -38
75 19 -38
76 26 21
77 26 21
78 26 21
79 26 21
80 26 21
81 26 21
82 26 21
83 47 25
84 47 25
85 47 25
86 47 -8
87 47 -8
88 47 -8
89 47 -8
90 47 -8
91 -18 -34
92 -18 -34
93 31 -4
94 31 -4
95 31 -4
96 32 40
97 32 40
98 32 40
99 32 40
100 12 25
101 12 25
102 12 25
103 12 25
104 -41 0
105 -41 0
106 -41 0
107 -41 0
108 -41 0
109 -41 0
110 -41 0
111 -22 22
112 -22 22
113 -22 22
114 -22 22
115 -22 22
116 8 25
117 -5 -20
118 -5 -20
119 -5 -20
120 -5 -20
121 -5 -20
122 -5 -20
123 -5 -20
124 25 4
125 25 4
126 25 4
127 25 4
128 48 44
129 48 44
130 48 44
131 48 44
132 48 44
133 21 -42
134 21 -42
135 21 -42
136 21 -42
137 21 -42
138 10 -38
139 10 -38
140 10 -38
141 10 -38
142 10 -38
143 10 -38
144 10 -38
145 17 -22
146 17 -22
147 -29 26
148 -29 26
149 -29 26
150 -29 26
151 -29 26
152 -2 -13
153 -2 -13
154 -2 -13
155 -2 -13
156 35 48
157 35 48
158 35 48
159 -50 9
160 -50 9
161 -23 1
162 -23 1
163 -23 1
164 -23 1
165 -23 1
166 -23 1
167 13 -19
168 13 -19
169 13 -19
170 13 -19
171 13 -19
172 -2 29
173 -2 29
174 -33 -10
175 -33 -10
176 -33 -10
177 -33 -10
178 -33 -10
179 -34 37
180 -34 37
181 -34 37
182 -34 37
183 19 37
184 19 37
185 19 37
186 19 37
187 39 -8
188 39 -8
189 39 -8
190 39 -8
191 23 -48
192 23 -48
193 23 -48
194 23 -48
195 23 -48
196 23 -48
197 23 -48
198 -39 18
199 -39 18
200 -39 18
201 -25 -24
202 -25 -24
203 -25 -24
204 -25 -24
205 -25 -24
206 -25 -24
207 -6 44
208 -6 44
209 -6 44
210 -6 44
211 -6 44
212 -6 44
213 -45 -32
214 -45 -32
215 -45 -32
216 -45 -32
217 -45 -32
218 23 -13
219 23 -13
220 23 -13
221 23 -13
222 23 -13
223 23 -13
224 23 -13
225 23 -13
226 -23 -47
227 -23 -47
228 -23 -47
229 -23 -47
230 -23 -47
231 -23 -47
232 -5 27
233 -5 27
234 -5 27
235 -5 27
236 -5 27
237 -47 -13
238 -47 -13
239 -47 -13
240 -47 -13
241 -47 -13
242 -47 -13
243 -47 -13
244 -30 -20
245 -30 -20
246 -30 -20
247 -30 -20
248 -30 -20
249 -41 -26
250 -41 -26
251 -41 -26
252 -9 -9
253 -9 -9
254 -9 -9
255 -9 -9
256 10 13
257 10 13
258 10 13
259 -47 15
260 -47 15
261 -47 15
262 -47 15
263 -47 15
264 -47 15
265 49 -22
266 49 -22
267 49 -22
268 49 -22
269 49 -22
270 49 -22
271 49 -22
272 -5 -40
273 -5 -40
274 13 -33
275 -8 31
276 -8 31
277 -8 31
278 -8 31
279 -8 31
280 -8 31
281 27 41
282 27 41
283 27 41
284 27 41
285 21 -33
286 21 -33
287 21 -33
288 21 -33
289 -20 49
290 -20 49
291 -20 49
292 -20 49
293 -20 49
294 -20 49
295 18 47
296 18 47
297 -29 -45
298 -29 -45
299 -29 -45
300 -29 -45
301 -29 -45
302 -7 -35
303 -7 -35
304 -7 -35
305 -7 -35
306 -7 -35
307 14 38
308 14 38
309 14 38
310 -40 12
311 -40 12
312 -40 12
313 -40 12
314 7 -7
315 7 -7
316 7 -7
317 7 -7
318 41 36
319 41 36
320 41 36
321 41 36
322 41 36
323 19 11
324 19 11
325 19 11
326 -22 -33
327 -22 -33
328 -22 -33
329 -22 -33
330 -22 -33
331 -22 -33
332 -2 1
333 -2 1
334 -2 1
335 -2 1
336 -2 1
337 7 -25
338 7 -25
339 7 -25
340 7 -25
341 7 -25
342 42 -17
343 42 -17
344 42 -17
345 42 -17
346 42 -17
347 42 -17
348 42 -17
DEMAND_SECTION
1 0
2 280
3 140
4 70
5 140
6 70
7 14
8 14
9 2
10 280
11 140
12 70
13 10
14 280
15 280
16 70
17 280
18 14
19 14
20 14
21 8
22 280
23 70
24 14
25 14
26 14
27 14
28 4
29 280
30 280
31 70
32 14
33 6
34 280
35 280
36 14
37 14
38 14
39 14
40 4
41 280
42 140
43 70
44 14
45 14
46 14
47 8
48 280
49 280
50 140
51 280
52 140
53 70
54 10
55 140
56 70
57 14
58 14
59 12
60 280
61 140
62 70
63 14
64 14
65 14
66 14
67 4
68 280
69 14
70 14
71 12
72 280
73 140
74 70
75 10
76 280
77 70
78 14
79 14
80 14
81 14
82 4
83 280
84 140
85 10
86 280
87 140
88 70
89 14
90 6
91 280
92 280
93 280
94 70
95 10
96 280
97 140
98 70
99 10
100 140
101 14
102 14
103 2
104 280
105 280
106 70
107 14
108 14
109 14
110 8
111 280
112 280
113 14
114 14
115 12
116 280
117 140
118 70
119 14
120 14
121 14
122 14
123 4
124 280
125 280
126 14
127 6
128 140
129 70
130 14
131 14
132 12
133 280
134 14
135 14
136 14
137 8
138 140
139 70
140 14
141 14
142 14
143 14
144 4
145 140
146 70
147 280
148 140
149 70
150 14
151 6
152 280
153 14
154 14
155 12
156 280
157 70
158 10
159 140
160 70
161 280
162 140
163 70
164 14
165 14
166 12
167 280
168 70
169 14
170 14
171 12
172 280
173 140
174 280
175 140
176 14
177 14
178 12
179 140
180 70
181 14
182 6
183 280
184 140
185 70
186 10
187 140
188 70
189 14
190 6
191 280
192 280
193 14
194 14
195 14
196 14
197 4
198 280
199 280
200 140
201 140
202 14
203 14
204 14
205 14
206 4
207 280
208 280
209 14
210 14
211 14
212 8
213 140
214 14
215 14
216 14
217 8
218 280
219 140
220 70
221 14
222 14
223 14
224 14
225 4
226 140
227 70
228 14
229 14
230 14
231 8
232 280
233 280
234 70
235 14
236 6
237 140
238 70
239 14
240 14
241 14
242 14
243 4
244 140
245 70
246 14
247 14
248 12
249 280
250 280
251 140
252 280
253 140
254 70
255 10
256 280
257 280
258 140
259 280
260 280
261 70
262 14
263 14
264 2
265 280
266 280
267 14
268 14
269 14
270 14
271 4
272 280
273 280
274 280
275 280
276 140
277 70
278 14
279 14
280 12
281 280
282 14
283 14
284 2
285 280
286 14
287 14
288 2
289 280
290 280
291 70
292 14
293 14
294 2
295 280
296 70
297 140
298 14
299 14
300 14
301 8
302 280
303 14
304 14
305 14
306 8
307 280
308 140
309 10
310 140
311 14
312 14
313 12
314 280
315 14
316 14
317 2
318 140
319 70
320 14
321 14
322 12
323 280
324 280
325 140
326 280
327 70
328 14
329 14
330 14
331 8
332 280
333 70
334 14
335 14
336 2
337 280
338 280
339 70
340 14
341 6
342 280
343 140
344 70
345 14
346 14
347 14
348 8
DEPOT_SECTION
1
-1
EOF