SDVRP instances/custom_instances/p02_26_splitx10_0.sol
347 -2 3 1 82 84 83 75 80 81 79 78 77 76 -32 28 29 31 30 252 251 254 253 -36 38 37 39 33 35 34 123 125 124 126 -49 48 47 110 114 111 113 112 -52 51 53 50 259 261 263 260 258 262 158 159 -94 93 92 344 346 341 342 343 218 219 217 224 222 -98 95 97 96 155 157 156 129 128 131 127 130 317 321 318 319 320 -100 101 99 102 185 184 182 183 308 307 306 115 -122 120 121 119 118 305 304 302 303 301 90 91 328 330 325 326 329 327 -134 133 136 135 190 195 193 191 194 192 196 58 56 57 55 54 25 24 22 21 23 26 27 220 221 223 -144 145 137 141 140 142 138 139 143 70 67 68 69 272 271 152 153 154 -149 150 148 146 147 181 178 179 180 292 293 291 290 288 289 -151 116 117 8 7 5 6 4 337 338 336 339 340 -164 162 161 160 312 310 311 309 199 197 198 -165 163 103 105 109 107 104 108 106 18 19 20 16 17 176 173 177 175 -169 170 167 166 168 14 13 15 313 315 314 316 -172 171 276 274 231 233 232 -174 239 237 238 241 240 236 242 65 62 64 61 59 60 66 63 247 244 243 200 202 204 203 205 201 -188 187 189 186 86 88 89 85 87 270 265 269 266 264 267 268 345 347 -226 230 228 227 225 229 297 296 298 300 299 216 214 215 212 213 250 248 249 246 245 -234 235 208 210 211 209 207 206 41 43 46 45 44 42 40 277 275 279 278 -256 257 255 323 322 324 -273 73 74 71 72 132 284 285 286 287 -280 283 281 282 12 10 11 9 294 295 -331 332 333 334 335 0 





OBJ=
2212.324
BEST_KNOWN=
0.000